SYSTEM = test system
ENCUT = 520.0
ISMEAR = 0
SIGMA = 0.05
LSORBIT = .TRUE.
MAGMOM = 0.0 0.0 3.0  3.0 0.0 0.0  0.0 3.0 0.0  0.0 0.0 -3.0
M_CONSTR = 0.0 0.0 3.0  3.0 0.0 0.0  0.0 3.0 0.0  0.0 0.0 -3.0
