NCORE = 4

!ICHARG = 1

!ISMEAR = -1
!SIGMA = 0.05

ENCUT = 350.0
PREC = accurate
NBANDS = 1700
GGA = PE
GGA_COMPAT = False
LASPH = True
!ADDGRID = .TRUE.

EDIFF = 1.28E-6
NELM = 60

IMIX = 4
AMIX      = 0.05
BMIX      = 0.001
AMIX_MAG  = 0.05
BMIX_MAG  = 0.001
LMAXMIX = 4

NSW = 0
IBRION = -1
POTIM = 0.10
!ISIF = 6
!NEDOS = 1001

LREAL = .FALSE.
LWAVE = .False.
LCHARG = .TRUE.
!EDIFFG = -0.001

LORBIT = 0

!ISPIN = 2
LNONCOLLINEAR = .TRUE.
LSORBIT = .FALSE.
I_CONSTRAINED_M = 4
RWIGS = 1.22533
LAMBDA = 1
M_CONSTR = 0 0 3.0  0 0 3.0  0 0 3.0  0 0 3.0  0 0 3.0  0 0 3.0  0 0 3.0  0 0 3.0  0 0 3.0  0 0 3.0  0 0 3.0  0 0 3.0  0 0 3.0  0 0 3.0  0 0 3.0  0 0 3.0  0 0 3.0  0 0 3.0  0 0 3.0  0 0 3.0  0 0 3.0  0 0 3.0  0 0 3.0  0 0 3.0  0 0 3.0  0 0 3.0  0 0 3.0  0 0 3.0  0 0 3.0  0 0 3.0  0 0 3.0  0 0 3.0  0 0 3.0  0 0 3.0  0 0 3.0  0 0 3.0  0 0 3.0  0 0 3.0  0 0 3.0  0 0 3.0  0 0 3.0  0 0 3.0  0 0 3.0  0 0 3.0  0 0 3.0  0 0 3.0  0 0 3.0  0 0 3.0  0 0 3.0  0 0 3.0  0 0 3.0  0 0 3.0  0 0 3.0  0 0 3.0  0 0 3.0  0 0 3.0  0 0 3.0  0 0 3.0  0 0 3.0  0 0 3.0  0 0 3.0  0 0 3.0  0 0 3.0  0 0 3.0  0 0 3.0  0 0 3.0  0 0 3.0  0 0 3.0  0 0 3.0  0 0 3.0  0 0 3.0  0 0 3.0  0 0 3.0  0 0 3.0  0 0 3.0  0 0 3.0  0 0 3.0  0 0 3.0  0 0 3.0  0 0 3.0  0 0 3.0  0 0 3.0  0 0 3.0  0 0 3.0  0 0 3.0  0 0 3.0  0 0 3.0  0 0 3.0  0 0 3.0  0 0 3.0  0 0 3.0  0 0 3.0  0 0 3.0  0 0 3.0  0 0 3.0  0 0 3.0  0 0 3.0  0 0 3.0  0 0 3.0  0 0 3.0  0 0 3.0  0 0 3.0  0 0 3.0  0 0 3.0  0 0 3.0  0 0 3.0  0 0 3.0  0 0 3.0  0 0 3.0  0 0 3.0  0 0 3.0  0 0 3.0  0 0 3.0  0 0 3.0  0 0 3.0  0 0 3.0  0 0 3.0  0 0 3.0  0 0 3.0  0 0 3.0  0 0 3.0  0 0 3.0  0 0 3.0  0 0 3.0  0 0 3.0  0 0 3.0  0 0 3.0  0 0 3.0 

ISYM = 0
MAGMOM = 0 0 3.0  0 0 3.0  0 0 3.0  0 0 3.0  0 0 3.0  0 0 3.0  0 0 3.0  0 0 3.0  0 0 3.0  0 0 3.0  0 0 3.0  0 0 3.0  0 0 3.0  0 0 3.0  0 0 3.0  0 0 3.0  0 0 3.0  0 0 3.0  0 0 3.0  0 0 3.0  0 0 3.0  0 0 3.0  0 0 3.0  0 0 3.0  0 0 3.0  0 0 3.0  0 0 3.0  0 0 3.0  0 0 3.0  0 0 3.0  0 0 3.0  0 0 3.0  0 0 3.0  0 0 3.0  0 0 3.0  0 0 3.0  0 0 3.0  0 0 3.0  0 0 3.0  0 0 3.0  0 0 3.0  0 0 3.0  0 0 3.0  0 0 3.0  0 0 3.0  0 0 3.0  0 0 3.0  0 0 3.0  0 0 3.0  0 0 3.0  0 0 3.0  0 0 3.0  0 0 3.0  0 0 3.0  0 0 3.0  0 0 3.0  0 0 3.0  0 0 3.0  0 0 3.0  0 0 3.0  0 0 3.0  0 0 3.0  0 0 3.0  0 0 3.0  0 0 3.0  0 0 3.0  0 0 3.0  0 0 3.0  0 0 3.0  0 0 3.0  0 0 3.0  0 0 3.0  0 0 3.0  0 0 3.0  0 0 3.0  0 0 3.0  0 0 3.0  0 0 3.0  0 0 3.0  0 0 3.0  0 0 3.0  0 0 3.0  0 0 3.0  0 0 3.0  0 0 3.0  0 0 3.0  0 0 3.0  0 0 3.0  0 0 3.0  0 0 3.0  0 0 3.0  0 0 3.0  0 0 3.0  0 0 3.0  0 0 3.0  0 0 3.0  0 0 3.0  0 0 3.0  0 0 3.0  0 0 3.0  0 0 3.0  0 0 3.0  0 0 3.0  0 0 3.0  0 0 3.0  0 0 3.0  0 0 3.0  0 0 3.0  0 0 3.0  0 0 3.0  0 0 3.0  0 0 3.0  0 0 3.0  0 0 3.0  0 0 3.0  0 0 3.0  0 0 3.0  0 0 3.0  0 0 3.0  0 0 3.0  0 0 3.0  0 0 3.0  0 0 3.0  0 0 3.0  0 0 3.0  0 0 3.0  0 0 3.0  0 0 3.0 

