NCORE = 4

ICHARG = 1
ISTART = 1

!ISMEAR = 1
!SIGMA = 0.2

ENCUT = 500.0
!KSPACING = 0.15
PREC = accurate
NBANDS = 240
GGA = PE
GGA_COMPAT = False
LASPH = True
!LSFBXC  = .TRUE.
!ADDGRID = .TRUE.

EDIFF = 1.6E-7
NELM = 300

IMIX = 4
AMIX      = 0.1
BMIX      = 0.00001
AMIX_MAG  = 0.2
BMIX_MAG  = 0.00001

NSW = 0
IBRION = -1
!POTIM = 0.10
ISIF = 6
EDIFFG = -0.001
!NEDOS = 1001

!LMAXMIX = 4
LREAL = .FALSE.
LWAVE = .TRUE.
LCHARG = .TRUE.
!LAECHG = .TRUE.

LORBIT = 10

LSORBIT = TRUE
!ISPIN = 2
LNONCOLLINEAR = .TRUE.
I_CONSTRAINED_M = 4
RWIGS = 1.302 1.455
LAMBDA = 10
MAGMOM = 0 0 3.8 0 0 3.8 0 0 3.8 0 0 3.8 0 0 3.8 0 0 3.8 0 0 3.8 0 0 3.8 0 0 1 0 0 1 0 0 1 0 0 1 0 0 1 0 0 1 0 0 1 0 0 1
M_CONSTR = 0 0 3.8 0 0 3.8 0 0 3.8 0 0 3.8 0 0 3.8 0 0 3.8 0 0 3.8 0 0 3.8 0 0 1 0 0 1 0 0 1 0 0 1 0 0 1 0 0 1 0 0 1 0 0 1
ISYM = -1
