FePt                                    
1.0
        5.4440822601         0.0000000000         0.0000000000
        0.0000000000         5.4440732002         0.0000000000
        0.0000000000         0.0000000000         7.5410323143
   Fe   Pt
    8    8
Direct
     0.000000000         0.000000000         0.000000000
     0.000000000         0.000000000         0.500000000
     0.000000000         0.500000000         0.000000000
     0.000000000         0.500000000         0.500000000
     0.500000000         0.000000000         0.000000000
     0.500000000         0.000000000         0.500000000
     0.500000000         0.500000000         0.000000000
     0.500000000         0.500000000         0.500000000
     0.250000000         0.250000000         0.250000000
     0.250000000         0.250000000         0.750000000
     0.250000000         0.750000000         0.250000000
     0.250000000         0.750000000         0.750000000
     0.750000000         0.250000000         0.250000000
     0.750000000         0.250000000         0.750000000
     0.750000000         0.750000000         0.250000000
     0.750000000         0.750000000         0.750000000
