FePt test structure
1.0
3.8600000000 0.0000000000 0.0000000000
0.0000000000 3.8600000000 0.0000000000
0.0000000000 0.0000000000 3.7100000000
Fe Pt
2 2
Direct
0.0000000000 0.0000000000 0.0000000000
0.5000000000 0.5000000000 0.0000000000
0.5000000000 0.0000000000 0.5000000000
0.0000000000 0.5000000000 0.5000000000
