Cartesian scaled test
2.0
2.0 0.0 0.0
0.0 2.0 0.0
0.0 0.0 2.0
Fe Pt
1 1
Cartesian
0.0 0.0 0.0
1.0 1.0 1.0
